\ LP format - for model browsing. Use MPS format to capture full model detail.
Minimize
  0 x[1,2,0] + 0 x[1,2,1] + 0 x[1,10,0] + 0 x[1,10,1] + 0 x[2,1,0]
   + 0 x[2,1,1] + 0 x[2,3,0] + 0 x[2,3,1] + 0 x[2,4,0] + 0 x[2,4,1]
   + 0 x[3,2,0] + 0 x[3,2,1] + 0 x[3,4,0] + 0 x[3,4,1] + 0 x[4,3,0]
   + 0 x[4,3,1] + 0 x[4,5,0] + 0 x[4,5,1] + 0 x[4,2,0] + 0 x[4,2,1]
   + 0 x[5,4,0] + 0 x[5,4,1] + 0 x[5,6,0] + 0 x[5,6,1] + 0 x[5,10,0]
   + 0 x[5,10,1] + 0 x[6,5,0] + 0 x[6,5,1] + 0 x[6,7,0] + 0 x[6,7,1]
   + 0 x[6,9,0] + 0 x[6,9,1] + 0 x[7,6,0] + 0 x[7,6,1] + 0 x[7,8,0]
   + 0 x[7,8,1] + 0 x[8,7,0] + 0 x[8,7,1] + 0 x[8,9,0] + 0 x[8,9,1]
   + 0 x[9,8,0] + 0 x[9,8,1] + 0 x[9,10,0] + 0 x[9,10,1] + 0 x[9,6,0]
   + 0 x[9,6,1] + 0 x[10,9,0] + 0 x[10,9,1] + 0 x[10,1,0] + 0 x[10,1,1]
   + 0 x[10,5,0] + 0 x[10,5,1] + 0 q[1,0] + 0 q[2,0] + 0 q[3,0] + 0 q[4,0]
   + 0 q[5,0] + 0 q[6,0] + 0 q[7,0] + 0 q[8,0] + 0 q[9,0] + 0 q[10,0]
   + 0 q[1,1] + 0 q[2,1] + 0 q[3,1] + 0 q[4,1] + 0 q[5,1] + 0 q[6,1]
   + 0 q[7,1] + 0 q[8,1] + 0 q[9,1] + 0 q[10,1] + 0 f[1,2,0] + 0 f[1,2,1]
   + 0 f[1,10,0] + 0 f[1,10,1] + 0 f[2,1,0] + 0 f[2,1,1] + 0 f[2,3,0]
   + 0 f[2,3,1] + 0 f[2,4,0] + 0 f[2,4,1] + 0 f[3,2,0] + 0 f[3,2,1]
   + 0 f[3,4,0] + 0 f[3,4,1] + 0 f[4,3,0] + 0 f[4,3,1] + 0 f[4,5,0]
   + 0 f[4,5,1] + 0 f[4,2,0] + 0 f[4,2,1] + 0 f[5,4,0] + 0 f[5,4,1]
   + 0 f[5,6,0] + 0 f[5,6,1] + 0 f[5,10,0] + 0 f[5,10,1] + 0 f[6,5,0]
   + 0 f[6,5,1] + 0 f[6,7,0] + 0 f[6,7,1] + 0 f[6,9,0] + 0 f[6,9,1]
   + 0 f[7,6,0] + 0 f[7,6,1] + 0 f[7,8,0] + 0 f[7,8,1] + 0 f[8,7,0]
   + 0 f[8,7,1] + 0 f[8,9,0] + 0 f[8,9,1] + 0 f[9,8,0] + 0 f[9,8,1]
   + 0 f[9,10,0] + 0 f[9,10,1] + 0 f[9,6,0] + 0 f[9,6,1] + 0 f[10,9,0]
   + 0 f[10,9,1] + 0 f[10,1,0] + 0 f[10,1,1] + 0 f[10,5,0] + 0 f[10,5,1]
Subject To
Bounds
Binaries
 x[1,2,0] x[1,2,1] x[1,10,0] x[1,10,1] x[2,1,0] x[2,1,1] x[2,3,0] x[2,3,1]
 x[2,4,0] x[2,4,1] x[3,2,0] x[3,2,1] x[3,4,0] x[3,4,1] x[4,3,0] x[4,3,1]
 x[4,5,0] x[4,5,1] x[4,2,0] x[4,2,1] x[5,4,0] x[5,4,1] x[5,6,0] x[5,6,1]
 x[5,10,0] x[5,10,1] x[6,5,0] x[6,5,1] x[6,7,0] x[6,7,1] x[6,9,0] x[6,9,1]
 x[7,6,0] x[7,6,1] x[7,8,0] x[7,8,1] x[8,7,0] x[8,7,1] x[8,9,0] x[8,9,1]
 x[9,8,0] x[9,8,1] x[9,10,0] x[9,10,1] x[9,6,0] x[9,6,1] x[10,9,0]
 x[10,9,1] x[10,1,0] x[10,1,1] x[10,5,0] x[10,5,1]
End
